480020
480020
480020
480020
480020
477653
473678
472381
472381
471828
458655
456211
456211
456211
456211
450134
450134
445493
445479
439469
426959
426959
426959
417771
417771
410166
409219
405537
403184
403184
403184
396919
396919
396773
396773
396773
396773
396773
396773
396773
396773
395187
395187
395187
395187
388809
387713
387713
387713
387713
387713
387713
387713
383592
383592
383592
383592
383592
383592
383592
383592
383592
383592
383592
383592
383592
383592
383592
378084
377070
377070
375589
369852
369852
369852
369852
369852
369852
369852
369852
369852
369852
369852
369852
367742
367742
348281
348281
348281
348281
348281
348281
348281
348281
348281
348281
348281
348281
348281
348281
